100
128
48
59
50
41
47
52
51
22
53
8
17
1
46
50
10
61
62
62
15
49
61
11
32
18
30
1
10
51
48
9
23
16
42
60
26
48
47
43
33
3
21
12
20
14
5
38
13
34
1
2
39
4
24
27
17
59
15
53
17
21
49
43
3
20
1
35
50
29
21
4
18
37
46
31
44
21
22
5
38
57
4
3
41
20
24
27
27
24
40
51
47
57
18
18
30
49
39
21
25
63